<number of tasks>
29

<cycle time>
36

<task times>
1 7
2 19
3 15
4 5
5 12
6 10
7 8
8 16
9 2
10 6
11 21
12 10
13 9
14 4
15 14
16 7
17 14
18 17
19 10
20 16
21 1
22 9
23 25
24 14
25 14
26 2
27 10
28 7
29 20

<precedence relations>
1,3
1,25
2,6
2,26
3,4
4,5
5,8
5,13
6,8
7,9
7,12
7,25
8,11
8,16
9,10
10,14
10,15
11,17
12,15
13,17
14,16
15,19
16,18
17,20
18,22
19,21
20,23
21,22
22,23
23,24
23,28
24,29
25,29
26,27
27,29
28,29

<setup times forward>
1,3:4
1,6:2
1,10:4
1,12:2
1,14:3
1,15:2
1,19:4
1,21:4
1,25:4
1,26:2
1,27:1
2,3:4
2,4:2
2,5:2
2,6:2
2,10:4
2,12:2
2,13:1
2,14:3
2,15:2
2,19:4
2,21:4
2,25:4
2,26:2
3,2:4
3,4:6
3,6:2
3,7:4
3,9:4
3,12:6
3,14:7
3,15:2
3,19:8
3,21:8
3,26:6
3,27:3
4,2:2
4,5:4
4,6:4
4,7:2
4,9:2
4,10:6
4,14:1
4,15:4
4,19:2
4,21:2
4,25:6
4,27:3
5,2:2
5,7:2
5,8:1
5,9:2
5,10:2
5,12:4
5,13:1
5,14:5
5,19:6
5,21:6
5,25:2
5,26:4
5,27:1
6,1:2
6,3:2
6,4:4
6,7:2
6,8:1
6,9:2
6,10:2
6,12:4
6,13:1
6,14:5
6,19:6
6,21:6
6,25:2
6,26:4
6,27:1
7,3:4
7,4:2
7,5:2
7,6:2
7,8:1
7,11:3
7,12:2
7,13:1
7,20:4
7,25:4
7,26:2
7,27:1
8,7:1
8,9:1
8,10:3
8,11:4
8,12:3
8,14:4
8,15:1
8,16:4
8,19:5
8,21:5
8,25:3
8,26:3
9,3:4
9,4:2
9,5:2
9,6:2
9,8:1
9,10:4
9,11:3
9,12:2
9,13:1
9,20:4
9,25:4
9,26:2
9,27:1
10,1:4
10,2:4
10,4:6
10,5:2
10,6:2
10,8:3
10,11:7
10,12:6
10,13:3
10,14:7
10,15:2
10,17:4
10,20:8
10,26:6
10,27:3
11,7:3
11,9:3
11,10:7
11,12:1
11,13:4
11,15:5
11,17:3
11,18:3
11,19:1
11,21:1
11,22:1
11,25:7
11,26:1
11,27:4
12,1:2
12,2:2
12,3:6
12,5:4
12,6:4
12,8:3
12,9:2
12,10:6
12,11:1
12,13:3
12,14:1
12,15:4
12,16:1
12,17:2
12,18:2
12,20:2
12,25:6
12,27:3
13,2:1
13,6:1
13,7:1
13,9:1
13,10:3
13,11:4
13,12:3
13,14:4
13,15:1
13,16:4
13,17:1
13,18:1
13,19:5
13,21:5
13,22:5
13,25:3
13,26:3
14,1:3
14,2:3
14,3:7
14,4:1
14,5:5
14,6:5
14,8:4
14,12:1
14,13:4
14,15:5
14,17:3
14,19:1
14,20:1
14,21:1
14,25:7
14,26:1
14,27:4
15,1:2
15,2:2
15,3:2
15,4:4
15,8:1
15,11:5
15,13:1
15,14:5
15,16:5
15,17:2
15,18:2
15,19:6
15,20:6
15,25:2
15,26:4
15,27:1
16,12:1
16,13:4
16,15:5
16,17:3
16,18:3
16,19:1
16,20:1
16,21:1
16,25:7
16,26:1
16,27:4
17,10:4
17,12:2
17,14:3
17,15:2
17,16:3
17,19:4
17,20:4
17,21:4
17,22:4
17,25:4
17,26:2
17,27:1
18,11:3
18,12:2
18,13:1
18,15:2
18,19:4
18,20:4
18,21:4
18,22:4
18,25:4
18,26:2
18,27:1
19,1:4
19,2:4
19,3:8
19,4:2
19,5:6
19,6:6
19,8:5
19,11:1
19,13:5
19,14:1
19,16:1
19,17:4
19,18:4
19,25:8
19,26:2
19,27:5
20,7:4
20,9:4
20,10:8
20,12:2
20,14:1
20,15:6
20,16:1
20,18:4
20,23:6
20,25:8
20,26:2
20,27:5
21,1:4
21,2:4
21,3:8
21,4:2
21,5:6
21,6:6
21,8:5
21,11:1
21,13:5
21,14:1
21,16:1
21,17:4
21,18:4
21,25:8
21,26:2
21,27:5
22,11:1
22,13:5
22,17:4
22,23:6
22,25:8
22,26:2
22,27:5
23,24:4
23,25:2
23,26:4
23,27:1
24,25:6
24,27:3
24,28:4
25,2:4
25,4:6
25,5:2
25,6:2
25,8:3
25,9:4
25,11:7
25,12:6
25,13:3
25,14:7
25,15:2
25,16:7
25,17:4
25,18:4
25,19:8
25,20:8
25,21:8
25,22:8
25,23:2
25,24:6
25,26:6
25,27:3
25,28:2
25,29:6
26,1:2
26,3:6
26,5:4
26,6:4
26,7:2
26,8:3
26,9:2
26,10:6
26,11:1
26,13:3
26,14:1
26,15:4
26,16:1
26,17:2
26,18:2
26,19:2
26,20:2
26,21:2
26,22:2
26,23:4
26,25:6
26,27:3
26,28:4
27,1:1
27,3:3
27,4:3
27,5:1
27,6:1
27,7:1
27,9:1
27,10:3
27,11:4
27,12:3
27,14:4
27,15:1
27,16:4
27,17:1
27,18:1
27,19:5
27,20:5
27,21:5
27,22:5
27,23:1
27,24:3
27,25:3
27,28:1
27,29:3
28,24:4
28,25:2
28,26:4
28,27:1
28,29:4

<setup times backward>
1,12:2
1,14:3
1,19:4
1,21:4
1,26:2
2,4:2
2,12:2
2,14:3
2,19:4
2,21:4
3,1:4
3,2:4
3,6:2
3,7:4
3,9:4
3,12:6
3,14:7
3,15:2
3,19:8
3,21:8
3,26:6
3,27:3
4,14:1
4,19:2
4,21:2
5,1:2
5,2:2
5,4:4
5,7:2
5,9:2
5,12:4
5,14:5
5,19:6
5,21:6
5,26:4
5,27:1
6,1:2
6,2:2
6,4:4
6,7:2
6,9:2
6,12:4
6,13:1
6,14:5
6,19:6
6,21:6
6,26:4
6,27:1
7,4:2
7,11:3
7,20:4
7,26:2
8,1:1
8,2:1
8,4:3
8,7:1
8,9:1
8,12:3
8,14:4
8,19:5
8,21:5
8,26:3
9,4:2
9,11:3
9,12:2
9,20:4
9,26:2
10,1:4
10,2:4
10,4:6
10,5:2
10,6:2
10,7:4
10,8:3
10,9:4
10,11:7
10,12:6
10,13:3
10,17:4
10,20:8
10,26:6
10,27:3
11,19:1
11,21:1
11,22:1
12,11:1
12,14:1
12,16:1
12,20:2
13,1:1
13,2:1
13,4:3
13,7:1
13,9:1
13,11:4
13,12:3
13,14:4
13,16:4
13,18:1
13,19:5
13,21:5
13,22:5
13,26:3
14,19:1
14,20:1
14,21:1
15,1:2
15,2:2
15,4:4
15,7:2
15,8:1
15,9:2
15,11:5
15,12:4
15,13:1
15,14:5
15,16:5
15,17:2
15,18:2
15,20:6
15,26:4
15,27:1
16,19:1
16,20:1
16,21:1
17,4:2
17,11:3
17,12:2
17,14:3
17,16:3
17,19:4
17,21:4
17,22:4
17,26:2
18,4:2
18,11:3
18,12:2
18,14:3
18,16:3
18,19:4
18,20:4
18,21:4
18,26:2
23,1:2
23,2:2
23,4:4
23,7:2
23,8:1
23,9:2
23,11:5
23,12:4
23,13:1
23,14:5
23,16:5
23,17:2
23,18:2
23,19:6
23,20:6
23,21:6
23,22:6
23,26:4
23,27:1
24,11:1
24,14:1
24,16:1
24,19:2
24,20:2
24,21:2
24,22:2
25,1:4
25,2:4
25,4:6
25,5:2
25,6:2
25,7:4
25,8:3
25,9:4
25,11:7
25,12:6
25,13:3
25,14:7
25,15:2
25,16:7
25,17:4
25,18:4
25,19:8
25,20:8
25,21:8
25,22:8
25,23:2
25,24:6
25,26:6
25,27:3
25,28:2
26,11:1
26,14:1
26,16:1
26,19:2
26,20:2
26,21:2
26,22:2
27,1:1
27,2:1
27,4:3
27,7:1
27,9:1
27,11:4
27,12:3
27,14:4
27,16:4
27,17:1
27,18:1
27,19:5
27,20:5
27,21:5
27,22:5
27,24:3
27,26:3
28,1:2
28,2:2
28,4:4
28,7:2
28,8:1
28,9:2
28,11:5
28,12:4
28,13:1
28,14:5
28,16:5
28,17:2
28,18:2
28,19:6
28,20:6
28,21:6
28,22:6
28,24:4
28,26:4
28,27:1
29,11:1
29,14:1
29,16:1
29,19:2
29,20:2
29,21:2
29,22:2

<end>

<optimal SALBP-1 value>
10


<rand seed>
467321153

